nbGenes = 10;
preference = [[0 89 78 56 4 63 3 56 54 74 ]
[11 0 94 89 53 64 61 3 37 47 ]
[22 6 0 4 80 19 15 48 80 16 ]
[44 11 96 0 66 7 92 10 33 42 ]
[96 47 20 34 0 17 45 24 69 15 ]
[37 36 81 93 83 0 88 8 3 33 ]
[97 39 85 8 55 12 0 76 52 35 ]
[44 97 52 90 76 92 24 0 93 18 ]
[46 63 20 67 31 97 48 7 0 43 ]
[26 53 84 58 85 67 65 82 57 0 ]
];
